study/exp-portion-fine-grain-4v100/run-logs-backup-12-06/samgraph_cache_graphsage_kKHop2_papers100M-undir_coll_cache_asymm_link_2_cache_rate_014_batch_size_8000_concurrent_impl_MPS.log
config:eval_tsp="2022-12-06 14:08:30"
config:arch=arch5
config:num_train_worker=3
config:num_sample_worker=1
config:sample_type=khop2
config:root_path=/nvme/graph-learning-copy/samgraph/
config:dataset=papers100M-undir
config:pipeline=False
config:cache_policy=coll_cache_asymm_link
config:cache_percentage=0.14
config:num_epoch=4
config:batch_size=8000
config:num_hidden=256
config:max_sampling_jobs=1
config:max_copying_jobs=1
config:barriered_epoch=1
config:presample_epoch=2
config:omp_thread_num=13
config:unsupervised=False
config:amp=True
config:rolling=0
config:fanout=[25, 10]
config:lr=0.003
config:dropout=0.5
config:single_gpu=False
config:max_num_step=100000
config:validate_configs=False
config:report_acc=0
config:dataset_path=/nvme/graph-learning-copy/samgraph/papers100M-undir
config:torch_thread_num=13
config:train_workers=['cuda:0', 'cuda:1', 'cuda:2']
config:sample_workers=['cuda:3']
config:num_fanout=2
config:num_layer=2
config:_run_mode=RunMode.FGNN
config:_log_level=warn
config:_profile_level=3
config:_empty_feat=0
config:_arch=5
config:_sample_type=5
config:_cache_policy=13
test_result:init:input_scale_factor=1.1
0 :  {link #0 : 1}, {link #1 : 2},
1 :  {link #0 : 2}, {link #1 : 0},
2 :  {link #0 : 0}, {link #1 : 1},
0 :  {link #0 : 1}, {link #1 : 2},
1 :  {link #0 : 2}, {link #1 : 0},
2 :  {link #0 : 0}, {link #1 : 1},
0 :  {link #0 : 1}, {link #1 : 2},
1 :  {link #0 : 2}, {link #1 : 0},
2 :  {link #0 : 0}, {link #1 : 1},
Set parameter WLSAccessID
Set parameter WLSSecret
Set parameter LicenseID
Set parameter TimeLimit to value 200
Set parameter MIPGap to value 0.05
Set parameter GomoryPasses to value 0
Set parameter Aggregate to value 0
Set parameter LogFile to value "cppsolver.log"
Set parameter Threads to value 26
Academic license - for non-commercial use only - registered to xiaoniu.sxn@sjtu.edu.cn
Gurobi Optimizer version 9.5.1 build v9.5.1rc2 (linux64)
Thread count: 40 physical cores, 80 logical processors, using up to 26 threads
Academic license - for non-commercial use only - registered to xiaoniu.sxn@sjtu.edu.cn
Optimize a model with 21372 rows, 10174 columns and 64086 nonzeros
Model fingerprint: 0x2002e24b
Variable types: 4 continuous, 10170 integer (10170 binary)
Coefficient statistics:
  Matrix range     [2e-04, 4e+02]
  Objective range  [1e+00, 1e+00]
  Bounds range     [1e+00, 1e+00]
  RHS range        [1e+00, 2e+02]
Found heuristic solution: objective 2.000000e+09
Presolve removed 12206 rows and 0 columns
Presolve time: 0.09s
Presolved: 9166 rows, 10174 columns, 37642 nonzeros
Found heuristic solution: objective 7347.8848277
Variable types: 4 continuous, 10170 integer (10170 binary)

Root relaxation: objective 3.068670e+02, 7872 iterations, 0.17 seconds (0.16 work units)

    Nodes    |    Current Node    |     Objective Bounds      |     Work
 Expl Unexpl |  Obj  Depth IntInf | Incumbent    BestBd   Gap | It/Node Time

     0     0  306.86699    0   24 7347.88483  306.86699  95.8%     -    0s
H    0     0                     307.0936574  306.86699  0.07%     -    0s

Explored 1 nodes (10156 simplex iterations) in 0.38 seconds (0.31 work units)
Thread count was 26 (of 80 available processors)

Solution count 3: 307.094 7347.88 2e+09 

Optimal solution found (tolerance 5.00e-02)
Best objective 3.070936574020e+02, best bound 3.068669887667e+02, gap 0.0738%
coll_cache:optimal_local_rate=0.975324,0.975426,0.975324,
coll_cache:optimal_remote_rate=0.0106458,0.0105445,0.0106458,
coll_cache:optimal_cpu_rate=0.0140297,0.0140297,0.0140297,
z=307.094
test_result:init:feat_nbytes=56862697472
test_result:init:cache_nbytes=7949792256
test_result:init:feat_nbytes=56862697472
test_result:init:cache_nbytes=7958445056
test_result:init:feat_nbytes=56862697472
test_result:init:cache_nbytes=7949792256
0 :  {link #0 : 1}, {link #1 : 2},
1 :  {link #0 : 2}, {link #1 : 0},
2 :  {link #0 : 0}, {link #1 : 1},
0 :  {link #0 : 1}, {link #1 : 2},
1 :  {link #0 : 2}, {link #1 : 0},
2 :  {link #0 : 0}, {link #1 : 1},
0 :  {link #0 : 1}, {link #1 : 2},
1 :  {link #0 : 2}, {link #1 : 0},
2 :  {link #0 : 0}, {link #1 : 1},
Set parameter WLSAccessID
Set parameter WLSSecret
Set parameter LicenseID
Set parameter TimeLimit to value 200
Set parameter MIPGap to value 0.05
Set parameter GomoryPasses to value 0
Set parameter Aggregate to value 0
Set parameter LogFile to value "cppsolver.log"
Set parameter Threads to value 26
Academic license - for non-commercial use only - registered to xiaoniu.sxn@sjtu.edu.cn
Gurobi Optimizer version 9.5.1 build v9.5.1rc2 (linux64)
Thread count: 40 physical cores, 80 logical processors, using up to 26 threads
Academic license - for non-commercial use only - registered to xiaoniu.sxn@sjtu.edu.cn
Optimize a model with 21372 rows, 10174 columns and 64086 nonzeros
Model fingerprint: 0x28bbb1bf
Variable types: 4 continuous, 10170 integer (10170 binary)
Coefficient statistics:
  Matrix range     [2e-04, 4e+02]
  Objective range  [1e+00, 1e+00]
  Bounds range     [1e+00, 1e+00]
  RHS range        [1e+00, 2e+02]
Found heuristic solution: objective 2.000000e+09
Presolve removed 12206 rows and 0 columns
Presolve time: 0.08s
Presolved: 9166 rows, 10174 columns, 37642 nonzeros
Found heuristic solution: objective 7346.0498389
Variable types: 4 continuous, 10170 integer (10170 binary)

Root relaxation: objective 3.068670e+02, 7352 iterations, 0.19 seconds (0.17 work units)

    Nodes    |    Current Node    |     Objective Bounds      |     Work
 Expl Unexpl |  Obj  Depth IntInf | Incumbent    BestBd   Gap | It/Node Time

     0     0  306.86699    0   23 7346.04984  306.86699  95.8%     -    0s
H    0     0                     307.0936574  306.86699  0.07%     -    0s

Explored 1 nodes (9700 simplex iterations) in 0.40 seconds (0.32 work units)
Thread count was 26 (of 80 available processors)

Solution count 3: 307.094 7346.05 2e+09 

Optimal solution found (tolerance 5.00e-02)
Best objective 3.070936574020e+02, best bound 3.068669887667e+02, gap 0.0738%
coll_cache:optimal_local_rate=0.975426,0.975324,0.975324,
coll_cache:optimal_remote_rate=0.0105445,0.0106458,0.0106458,
coll_cache:optimal_cpu_rate=0.0140297,0.0140297,0.0140297,
z=307.094
test_result:init:cache_nbytes=0
test_result:init:cache_nbytes=0
test_result:init:cache_nbytes=0
[Train  Worker 0/3] Started with PID 990450(Tesla V100-SXM2-16GB)
[Train  Worker 0] run train for 4 epochs with 153 steps
Epoch 00000 | Epoch Time 1.8088 | Total Train Time(Profiler) 1.5420 | Copy Time 0.2616
Epoch 00001 | Epoch Time 0.6756 | Total Train Time(Profiler) 0.4241 | Copy Time 0.2470
Epoch 00002 | Epoch Time 0.6754 | Total Train Time(Profiler) 0.4242 | Copy Time 0.2467
Epoch 00003 | Epoch Time 0.6794 | Total Train Time(Profiler) 0.4273 | Copy Time 0.2471
[Train  Worker 0] Avg Epoch Time 0.6768 | Train Total Time(Profiler) 0.4252 | Copy Time 0.2469
[Train  Worker 1/3] Started with PID 990452(Tesla V100-SXM2-16GB)
[Train  Worker 1] run train for 4 epochs with 153 steps
[Train  Worker 1] Avg Epoch Time 0.6768 | Train Total Time(Profiler) 0.4206 | Copy Time 0.2512
[Train  Worker 2/3] Started with PID 990454(Tesla V100-SXM2-16GB)
[Train  Worker 2] run train for 4 epochs with 153 steps
[Train  Worker 2] Avg Epoch Time 0.6768 | Train Total Time(Profiler) 0.4206 | Copy Time 0.2515
    [Step(average) Profiler Level 1 E3 S152]
        L1  sample           0.005589 | send           0.001402
        L1  recv             0.000000 | copy           0.000000 | convert time 0.000000 | train  0.000000
        L1  feature nbytes 0.00 Bytes | label nbytes 0.00 Bytes
        L1  id nbytes      0.00 Bytes | graph nbytes 0.00 Bytes
        L1  miss nbytes    0.00 Bytes | remote nbytes 0.00 Bytes
        L1  num nodes         1100875 | num samples     1712949
    [Step(average) Profiler Level 2 E3 S152]
        L2  shuffle     0.000258 | core sample  0.002064 | id remap        0.003169
        L2  graph copy  0.000000 | id copy      0.000000 | cache feat copy 0.000000
        L2  last layer sample time 0.000315 | size 72446.333333
    [Step(average) Profiler Level 3 E3 S152]
        L3  khop sample coo  0.001744 | khop sort coo      0.000000 | khop count edge     0.000038 | khop compact edge 0.000245
        L3  walk sample coo  0.000000 | walk topk total    0.000000 | walk topk step1     0.000000 | walk topk step2   0.000000
        L3  walk topk step3  0.000000 | walk topk step4    0.000000 | walk topk step5     0.000000
        L3  walk topk step6  0.000000 | walk topk step7    0.000000
        L3  remap unique     0.000000 | remap populate     0.002636 | remap mapnode       0.000000 | remap mapedge     0.000532
        L3  cache get_index  0.000000 | cache copy_index   0.000000 | cache extract_miss  0.000000
        L3  cache copy_miss  0.000000 | cache combine_miss 0.000000 | cache combine cache 0.000000 | cache combine remote 0.000000
        L3  label extract  0.000000
    [Init Profiler Level 1]
        L1  init     5.0908 | sampler init    20.3366 | trainer init 0.0000
    [Init Profiler Level 2]
        L2  load ds         7.9611 | init queue          12.0173
        L2  presample       3.6678 | build interal ds     1.7785
        L2  build cache     0.0000
    [Init Profiler Level 3]
        L3  load dataset: mmap     5.0870 | copy         2.8742
        L3  dist queue: alloc      0.0017 | pin         12.0156 | push     0.0000
        L3  presample: init        0.2957
        L3  presample: sample      1.7026 | copy         0.1068
        L3  presample: count       0.9045 | sort         0.2921
        L3  presample: reset       0.0008 | get rank     0.0362
        L3  internal: cuda ctx     1.5298 | cuda stream     0.2441
[Sample Worker 0/1] Started with PID 990449(Tesla V100-SXM2-16GB)
[Sample Worker 0] run sample for 4 epochs with 153 steps
[Sample Worker 0] Avg Sample Total Time 1.0712 | Sampler Total Time(Profiler) 1.0697
test_result:sample_time=0.8551
test_result:get_cache_miss_index_time=0.0000
test_result:enqueue_samples_time=0.2146
test_result:epoch_time:sample_total=1.0712
[CUDA] cuda0: usage: 13.42 GB
[SAM] cuda0 data alloc        : 0.00 Bytes
[SAM] cuda0 workspace         : 1.23 GB
[SAM] cuda0 workspace reserve : 619.98 MB
[SAM] cuda0 total             : 1.23 GB
    [Step(average) Profiler Level 1 E3 S152]
        L1  sample           0.000000 | send           0.000000
        L1  recv             0.001563 | copy           0.004899 | convert time 0.000391 | train  0.007887
        L1  feature nbytes  537.54 MB | label nbytes   62.50 KB
        L1  id nbytes      0.00 Bytes | graph nbytes 0.00 Bytes
        L1  miss nbytes      14.78 MB | remote nbytes    5.12 MB
        L1  num nodes               0 | num samples           0
    [Step(average) Profiler Level 2 E3 S152]
        L2  shuffle     0.000000 | core sample  0.000000 | id remap        0.000000
        L2  graph copy  0.000003 | id copy      0.000000 | cache feat copy 0.003333
        L2  last layer sample time 0.000000 | size 0.000000
    [Step(average) Profiler Level 3 E3 S152]
        L3  khop sample coo  0.000000 | khop sort coo      0.000000 | khop count edge     0.000000 | khop compact edge 0.000000
        L3  walk sample coo  0.000000 | walk topk total    0.000000 | walk topk step1     0.000000 | walk topk step2   0.000000
        L3  walk topk step3  0.000000 | walk topk step4    0.000000 | walk topk step5     0.000000
        L3  walk topk step6  0.000000 | walk topk step7    0.000000
        L3  remap unique     0.000000 | remap populate     0.000000 | remap mapnode       0.000000 | remap mapedge     0.000000
        L3  cache get_index  0.000707 | cache copy_index   0.000000 | cache extract_miss  0.000000
        L3  cache copy_miss  0.000000 | cache combine_miss 0.002148 | cache combine cache 0.002357 | cache combine remote 0.000084
        L3  label extract  0.000176
    [Init Profiler Level 1]
        L1  init     5.0908 | sampler init     0.0000 | trainer init 68.7028
    [Init Profiler Level 2]
        L2  load ds         5.0870 | init queue          11.9867
        L2  presample       0.0000 | build interal ds     1.4511
        L2  build cache    55.2621
    [Init Profiler Level 3]
        L3  load dataset: mmap     5.0870 | copy         0.0000
        L3  dist queue: alloc      0.0017 | pin         11.9850 | push     0.0000
        L3  presample: init        0.0000
        L3  presample: sample      0.0000 | copy         0.0000
        L3  presample: count       0.0000 | sort         0.0000
        L3  presample: reset       0.0000 | get rank     0.0000
        L3  internal: cuda ctx     1.4511 | cuda stream     0.0000
|===========================================================================|
|                  PyTorch CUDA memory summary, device ID 0                 |
|---------------------------------------------------------------------------|
|            CUDA OOMs: 0            |        cudaMalloc retries: 0         |
|===========================================================================|
|        Metric         | Cur Usage  | Peak Usage | Tot Alloc  | Tot Freed  |
|---------------------------------------------------------------------------|
| Allocated memory      |   22893 KB |  402822 KB |  284866 MB |  284844 MB |
|       from large pool |   18219 KB |  399441 KB |  282753 MB |  282735 MB |
|       from small pool |    4674 KB |    7147 KB |    2112 MB |    2108 MB |
|---------------------------------------------------------------------------|
| Active memory         |   22893 KB |  402822 KB |  284866 MB |  284844 MB |
|       from large pool |   18219 KB |  399441 KB |  282753 MB |  282735 MB |
|       from small pool |    4674 KB |    7147 KB |    2112 MB |    2108 MB |
|---------------------------------------------------------------------------|
| GPU reserved memory   |  577536 KB |  577536 KB |  577536 KB |       0 B  |
|       from large pool |  569344 KB |  569344 KB |  569344 KB |       0 B  |
|       from small pool |    8192 KB |    8192 KB |    8192 KB |       0 B  |
|---------------------------------------------------------------------------|
| Non-releasable memory |   24210 KB |  368814 KB |  338030 MB |  338007 MB |
|       from large pool |   22741 KB |  366996 KB |  335611 MB |  335589 MB |
|       from small pool |    1469 KB |    3835 KB |    2419 MB |    2417 MB |
|---------------------------------------------------------------------------|
| Allocations           |      38    |      51    |   22680    |   22642    |
|       from large pool |       3    |      14    |    8976    |    8973    |
|       from small pool |      35    |      39    |   13704    |   13669    |
|---------------------------------------------------------------------------|
| Active allocs         |      39    |      51    |   22680    |   22641    |
|       from large pool |       3    |      14    |    8976    |    8973    |
|       from small pool |      36    |      39    |   13704    |   13668    |
|---------------------------------------------------------------------------|
| GPU reserved segments |      13    |      13    |      13    |       0    |
|       from large pool |       9    |       9    |       9    |       0    |
|       from small pool |       4    |       4    |       4    |       0    |
|---------------------------------------------------------------------------|
| Non-releasable allocs |      14    |      24    |   10461    |   10447    |
|       from large pool |       4    |      12    |    5121    |    5117    |
|       from small pool |      10    |      16    |    5340    |    5330    |
|---------------------------------------------------------------------------|
| Oversize allocations  |       0    |       0    |       0    |       0    |
|---------------------------------------------------------------------------|
| Oversize GPU segments |       0    |       0    |       0    |       0    |
|===========================================================================|

test_result:epoch_time:copy_time=0.2469
test_result:convert_time=0.0194
test_result:train_time=0.4059
test_result:epoch_time:train_total=0.4252
test_result:cache_percentage=0.1400
test_result:cache_hit_rate=1.0000
test_result:run_time=8.1336
